100 2 100
76 75 54 48 96 42 30 75 66 37 88 9 63 16 38 34 28 14 75 87 24 48 6 99 92 46 40 42 43 12 89 71 39 95 71 35 37 54 62 56 91 2 65 6 18 56 41 46 70 16 85 46 16 91 45 8 89 85 3 84 49 44 56 88 39 79 75 28 33 37 36 76 91 2 83 61 58 76 7 80 44 45 26 60 36 71 21 78 9 76 62 58 20 70 99 11 50 74 91 35 
